p cnf 274 617
121 -14 12 -11 0
-121 14 0
-121 -12 0
-121 11 0
122 -69 67 -66 0
-122 69 0
-122 -67 0
-122 66 0
123 -41 39 -38 0
-123 41 0
-123 -39 0
-123 38 0
124 -54 52 -51 0
-124 54 0
-124 -52 0
-124 51 0
125 -1 0
-125 1 0
126 -104 102 -101 0
-126 104 0
-126 -102 0
-126 101 0
127 -21 19 -18 0
-127 21 0
-127 -19 0
-127 18 0
128 -8 7 -6 0
-128 8 0
-128 -7 0
-128 6 0
129 -30 28 -27 0
-129 30 0
-129 -28 0
-129 27 0
130 -86 84 -83 0
-130 86 0
-130 -84 0
-130 83 0
-2 121 122 123 124 125 126 127 128 129 130 0
2 -121 0
2 -122 0
2 -123 0
2 -124 0
2 -125 0
2 -126 0
2 -127 0
2 -128 0
2 -129 0
2 -130 0
131 -19 -18 0
-131 19 0
-131 18 0
132 -39 -38 0
-132 39 0
-132 38 0
133 -84 -83 0
-133 84 0
-133 83 0
134 -102 -101 0
-134 102 0
-134 101 0
135 -3 -2 0
-135 3 0
-135 2 0
136 -7 -6 0
-136 7 0
-136 6 0
137 -52 -51 0
-137 52 0
-137 51 0
138 -28 -27 0
-138 28 0
-138 27 0
139 -12 -11 0
-139 12 0
-139 11 0
140 -67 -66 0
-140 67 0
-140 66 0
-4 131 132 133 134 135 136 137 138 139 140 0
4 -131 0
4 -132 0
4 -133 0
4 -134 0
4 -135 0
4 -136 0
4 -137 0
4 -138 0
4 -139 0
4 -140 0
141 -5 0
-141 5 0
142 -43 40 -38 0
-142 43 0
-142 -40 0
-142 38 0
143 -23 20 -18 0
-143 23 0
-143 -20 0
-143 18 0
144 -88 85 -83 0
-144 88 0
-144 -85 0
-144 83 0
145 -16 13 -11 0
-145 16 0
-145 -13 0
-145 11 0
146 -32 29 -27 0
-146 32 0
-146 -29 0
-146 27 0
147 -71 68 -66 0
-147 71 0
-147 -68 0
-147 66 0
148 -56 53 -51 0
-148 56 0
-148 -53 0
-148 51 0
149 -106 103 -101 0
-149 106 0
-149 -103 0
-149 101 0
-6 141 142 143 144 145 146 147 148 149 0
6 -141 0
6 -142 0
6 -143 0
6 -144 0
6 -145 0
6 -146 0
6 -147 0
6 -148 0
6 -149 0
150 -8 0
-150 8 0
151 -7 0
-151 7 0
-9 150 151 0
9 -150 0
9 -151 0
152 -73 70 -66 0
-152 73 0
-152 -70 0
-152 66 0
153 -90 87 -83 0
-153 90 0
-153 -87 0
-153 83 0
154 -108 105 -101 0
-154 108 0
-154 -105 0
-154 101 0
155 -34 31 -27 0
-155 34 0
-155 -31 0
-155 27 0
156 -58 55 -51 0
-156 58 0
-156 -55 0
-156 51 0
157 -10 0
-157 10 0
158 -45 42 -38 0
-158 45 0
-158 -42 0
-158 38 0
159 -25 22 -18 0
-159 25 0
-159 -22 0
-159 18 0
-11 152 153 154 155 156 157 158 159 0
11 -152 0
11 -153 0
11 -154 0
11 -155 0
11 -156 0
11 -157 0
11 -158 0
11 -159 0
160 -12 0
-160 12 0
161 -14 0
-161 14 0
-13 160 161 0
13 -160 0
13 -161 0
162 -13 0
-162 13 0
163 -16 0
-163 16 0
-15 162 163 0
15 -162 0
15 -163 0
164 -110 107 -101 0
-164 110 0
-164 -107 0
-164 101 0
165 -92 89 -83 0
-165 92 0
-165 -89 0
-165 83 0
166 -17 0
-166 17 0
167 -60 57 -51 0
-167 60 0
-167 -57 0
-167 51 0
168 -35 33 -27 0
-168 35 0
-168 -33 0
-168 27 0
169 -47 44 -38 0
-169 47 0
-169 -44 0
-169 38 0
170 -75 72 -66 0
-170 75 0
-170 -72 0
-170 66 0
-18 164 165 166 167 168 169 170 0
18 -164 0
18 -165 0
18 -166 0
18 -167 0
18 -168 0
18 -169 0
18 -170 0
171 -19 0
-171 19 0
172 -21 0
-172 21 0
-20 171 172 0
20 -171 0
20 -172 0
173 -23 0
-173 23 0
174 -20 0
-174 20 0
-22 173 174 0
22 -173 0
22 -174 0
175 -22 0
-175 22 0
176 -25 0
-176 25 0
-24 175 176 0
24 -175 0
24 -176 0
177 -48 46 -38 0
-177 48 0
-177 -46 0
-177 38 0
178 -62 59 -51 0
-178 62 0
-178 -59 0
-178 51 0
179 -94 91 -83 0
-179 94 0
-179 -91 0
-179 83 0
180 -77 74 -66 0
-180 77 0
-180 -74 0
-180 66 0
181 -26 0
-181 26 0
182 -112 109 -101 0
-182 112 0
-182 -109 0
-182 101 0
-27 177 178 179 180 181 182 0
27 -177 0
27 -178 0
27 -179 0
27 -180 0
27 -181 0
27 -182 0
183 -28 0
-183 28 0
184 -30 0
-184 30 0
-29 183 184 0
29 -183 0
29 -184 0
185 -32 0
-185 32 0
186 -29 0
-186 29 0
-31 185 186 0
31 -185 0
31 -186 0
187 -31 0
-187 31 0
188 -34 0
-188 34 0
-33 187 188 0
33 -187 0
33 -188 0
189 -35 0
-189 35 0
190 -33 0
-190 33 0
-36 189 190 0
36 -189 0
36 -190 0
191 -96 93 -83 0
-191 96 0
-191 -93 0
-191 83 0
192 -37 0
-192 37 0
193 -114 111 -101 0
-193 114 0
-193 -111 0
-193 101 0
194 -63 61 -51 0
-194 63 0
-194 -61 0
-194 51 0
195 -79 76 -66 0
-195 79 0
-195 -76 0
-195 66 0
-38 191 192 193 194 195 0
38 -191 0
38 -192 0
38 -193 0
38 -194 0
38 -195 0
196 -39 0
-196 39 0
197 -41 0
-197 41 0
-40 196 197 0
40 -196 0
40 -197 0
198 -40 0
-198 40 0
199 -43 0
-199 43 0
-42 198 199 0
42 -198 0
42 -199 0
200 -45 0
-200 45 0
201 -42 0
-201 42 0
-44 200 201 0
44 -200 0
44 -201 0
202 -47 0
-202 47 0
203 -44 0
-203 44 0
-46 202 203 0
46 -202 0
46 -203 0
204 -46 0
-204 46 0
205 -48 0
-205 48 0
-49 204 205 0
49 -204 0
49 -205 0
206 -50 0
-206 50 0
207 -98 95 -83 0
-207 98 0
-207 -95 0
-207 83 0
208 -116 113 -101 0
-208 116 0
-208 -113 0
-208 101 0
209 -80 78 -66 0
-209 80 0
-209 -78 0
-209 66 0
-51 206 207 208 209 0
51 -206 0
51 -207 0
51 -208 0
51 -209 0
210 -54 0
-210 54 0
211 -52 0
-211 52 0
-53 210 211 0
53 -210 0
53 -211 0
212 -53 0
-212 53 0
213 -56 0
-213 56 0
-55 212 213 0
55 -212 0
55 -213 0
214 -55 0
-214 55 0
215 -58 0
-215 58 0
-57 214 215 0
57 -214 0
57 -215 0
216 -60 0
-216 60 0
217 -57 0
-217 57 0
-59 216 217 0
59 -216 0
59 -217 0
218 -62 0
-218 62 0
219 -59 0
-219 59 0
-61 218 219 0
61 -218 0
61 -219 0
220 -61 0
-220 61 0
221 -63 0
-221 63 0
-64 220 221 0
64 -220 0
64 -221 0
222 -118 115 -101 0
-222 118 0
-222 -115 0
-222 101 0
223 -99 97 -83 0
-223 99 0
-223 -97 0
-223 83 0
224 -65 0
-224 65 0
-66 222 223 224 0
66 -222 0
66 -223 0
66 -224 0
225 -67 0
-225 67 0
226 -69 0
-226 69 0
-68 225 226 0
68 -225 0
68 -226 0
227 -68 0
-227 68 0
228 -71 0
-228 71 0
-70 227 228 0
70 -227 0
70 -228 0
229 -70 0
-229 70 0
230 -73 0
-230 73 0
-72 229 230 0
72 -229 0
72 -230 0
231 -72 0
-231 72 0
232 -75 0
-232 75 0
-74 231 232 0
74 -231 0
74 -232 0
233 -77 0
-233 77 0
234 -74 0
-234 74 0
-76 233 234 0
76 -233 0
76 -234 0
235 -76 0
-235 76 0
236 -79 0
-236 79 0
-78 235 236 0
78 -235 0
78 -236 0
237 -80 0
-237 80 0
238 -78 0
-238 78 0
-81 237 238 0
81 -237 0
81 -238 0
239 -82 0
-239 82 0
240 -119 117 -101 0
-240 119 0
-240 -117 0
-240 101 0
-83 239 240 0
83 -239 0
83 -240 0
241 -84 0
-241 84 0
242 -86 0
-242 86 0
-85 241 242 0
85 -241 0
85 -242 0
243 -85 0
-243 85 0
244 -88 0
-244 88 0
-87 243 244 0
87 -243 0
87 -244 0
245 -90 0
-245 90 0
246 -87 0
-246 87 0
-89 245 246 0
89 -245 0
89 -246 0
247 -89 0
-247 89 0
248 -92 0
-248 92 0
-91 247 248 0
91 -247 0
91 -248 0
249 -94 0
-249 94 0
250 -91 0
-250 91 0
-93 249 250 0
93 -249 0
93 -250 0
251 -93 0
-251 93 0
252 -96 0
-252 96 0
-95 251 252 0
95 -251 0
95 -252 0
253 -98 0
-253 98 0
254 -95 0
-254 95 0
-97 253 254 0
97 -253 0
97 -254 0
255 -99 0
-255 99 0
256 -97 0
-256 97 0
-100 255 256 0
100 -255 0
100 -256 0
257 -102 0
-257 102 0
258 -104 0
-258 104 0
-103 257 258 0
103 -257 0
103 -258 0
259 -106 0
-259 106 0
260 -103 0
-260 103 0
-105 259 260 0
105 -259 0
105 -260 0
261 -108 0
-261 108 0
262 -105 0
-262 105 0
-107 261 262 0
107 -261 0
107 -262 0
263 -110 0
-263 110 0
264 -107 0
-264 107 0
-109 263 264 0
109 -263 0
109 -264 0
265 -112 0
-265 112 0
266 -109 0
-266 109 0
-111 265 266 0
111 -265 0
111 -266 0
267 -114 0
-267 114 0
268 -111 0
-268 111 0
-113 267 268 0
113 -267 0
113 -268 0
269 -116 0
-269 116 0
270 -113 0
-270 113 0
-115 269 270 0
115 -269 0
115 -270 0
271 -118 0
-271 118 0
272 -115 0
-272 115 0
-117 271 272 0
117 -271 0
117 -272 0
273 -117 0
-273 117 0
274 -119 0
-274 119 0
-120 273 274 0
120 -273 0
120 -274 0
c p weight 1 0.5 0
c p weight -1 0.5 0
c p weight 2 1.0 0
c p weight -2 1.0 0
c p weight 3 1.0 0
c p weight -3 0.0 0
c p weight 4 1.0 0
c p weight -4 0.0 0
c p weight 5 0.5 0
c p weight -5 0.5 0
c p weight 6 1.0 0
c p weight -6 1.0 0
c p weight 7 0.5 0
c p weight -7 0.5 0
c p weight 8 1.0 0
c p weight -8 0.0 0
c p weight 9 1.0 0
c p weight -9 1.0 0
c p weight 10 0.5 0
c p weight -10 0.5 0
c p weight 11 1.0 0
c p weight -11 1.0 0
c p weight 12 0.3333333333333333 0
c p weight -12 0.6666666666666667 0
c p weight 13 1.0 0
c p weight -13 1.0 0
c p weight 14 0.49999999999999994 0
c p weight -14 0.5 0
c p weight 15 1.0 0
c p weight -15 1.0 0
c p weight 16 0.9999999999999997 0
c p weight -16 3.3306690738754696e-16 0
c p weight 17 0.5 0
c p weight -17 0.5 0
c p weight 18 1.0 0
c p weight -18 1.0 0
c p weight 19 0.25 0
c p weight -19 0.75 0
c p weight 20 1.0 0
c p weight -20 1.0 0
c p weight 21 0.3333333333333333 0
c p weight -21 0.6666666666666667 0
c p weight 22 1.0 0
c p weight -22 1.0 0
c p weight 23 0.5 0
c p weight -23 0.5 0
c p weight 24 1.0 0
c p weight -24 1.0 0
c p weight 25 1.0 0
c p weight -25 0.0 0
c p weight 26 0.5 0
c p weight -26 0.5 0
c p weight 27 1.0 0
c p weight -27 1.0 0
c p weight 28 0.2 0
c p weight -28 0.8 0
c p weight 29 1.0 0
c p weight -29 1.0 0
c p weight 30 0.25 0
c p weight -30 0.75 0
c p weight 31 1.0 0
c p weight -31 1.0 0
c p weight 32 0.3333333333333333 0
c p weight -32 0.6666666666666667 0
c p weight 33 1.0 0
c p weight -33 1.0 0
c p weight 34 0.49999999999999994 0
c p weight -34 0.5 0
c p weight 35 0.9999999999999998 0
c p weight -35 2.220446049250313e-16 0
c p weight 36 1.0 0
c p weight -36 1.0 0
c p weight 37 0.5 0
c p weight -37 0.5 0
c p weight 38 1.0 0
c p weight -38 1.0 0
c p weight 39 0.16666666666666666 0
c p weight -39 0.8333333333333334 0
c p weight 40 1.0 0
c p weight -40 1.0 0
c p weight 41 0.19999999999999998 0
c p weight -41 0.8 0
c p weight 42 1.0 0
c p weight -42 1.0 0
c p weight 43 0.24999999999999997 0
c p weight -43 0.75 0
c p weight 44 1.0 0
c p weight -44 1.0 0
c p weight 45 0.33333333333333326 0
c p weight -45 0.6666666666666667 0
c p weight 46 1.0 0
c p weight -46 1.0 0
c p weight 47 0.4999999999999998 0
c p weight -47 0.5000000000000002 0
c p weight 48 0.999999999999999 0
c p weight -48 9.992007221626409e-16 0
c p weight 49 1.0 0
c p weight -49 1.0 0
c p weight 50 0.5 0
c p weight -50 0.5 0
c p weight 51 1.0 0
c p weight -51 1.0 0
c p weight 52 0.14285714285714285 0
c p weight -52 0.8571428571428572 0
c p weight 53 1.0 0
c p weight -53 1.0 0
c p weight 54 0.16666666666666666 0
c p weight -54 0.8333333333333334 0
c p weight 55 1.0 0
c p weight -55 1.0 0
c p weight 56 0.19999999999999996 0
c p weight -56 0.8 0
c p weight 57 1.0 0
c p weight -57 1.0 0
c p weight 58 0.24999999999999992 0
c p weight -58 0.7500000000000001 0
c p weight 59 1.0 0
c p weight -59 1.0 0
c p weight 60 0.33333333333333315 0
c p weight -60 0.6666666666666669 0
c p weight 61 1.0 0
c p weight -61 1.0 0
c p weight 62 0.4999999999999996 0
c p weight -62 0.5000000000000004 0
c p weight 63 0.9999999999999984 0
c p weight -63 1.5543122344752192e-15 0
c p weight 64 1.0 0
c p weight -64 1.0 0
c p weight 65 0.5 0
c p weight -65 0.5 0
c p weight 66 1.0 0
c p weight -66 1.0 0
c p weight 67 0.125 0
c p weight -67 0.875 0
c p weight 68 1.0 0
c p weight -68 1.0 0
c p weight 69 0.14285714285714285 0
c p weight -69 0.8571428571428572 0
c p weight 70 1.0 0
c p weight -70 1.0 0
c p weight 71 0.16666666666666666 0
c p weight -71 0.8333333333333334 0
c p weight 72 1.0 0
c p weight -72 1.0 0
c p weight 73 0.2 0
c p weight -73 0.8 0
c p weight 74 1.0 0
c p weight -74 1.0 0
c p weight 75 0.25 0
c p weight -75 0.75 0
c p weight 76 1.0 0
c p weight -76 1.0 0
c p weight 77 0.3333333333333333 0
c p weight -77 0.6666666666666667 0
c p weight 78 1.0 0
c p weight -78 1.0 0
c p weight 79 0.5 0
c p weight -79 0.5 0
c p weight 80 1.0 0
c p weight -80 0.0 0
c p weight 81 1.0 0
c p weight -81 1.0 0
c p weight 82 0.5 0
c p weight -82 0.5 0
c p weight 83 1.0 0
c p weight -83 1.0 0
c p weight 84 0.1111111111111111 0
c p weight -84 0.8888888888888888 0
c p weight 85 1.0 0
c p weight -85 1.0 0
c p weight 86 0.125 0
c p weight -86 0.875 0
c p weight 87 1.0 0
c p weight -87 1.0 0
c p weight 88 0.14285714285714288 0
c p weight -88 0.8571428571428571 0
c p weight 89 1.0 0
c p weight -89 1.0 0
c p weight 90 0.16666666666666669 0
c p weight -90 0.8333333333333333 0
c p weight 91 1.0 0
c p weight -91 1.0 0
c p weight 92 0.20000000000000007 0
c p weight -92 0.7999999999999999 0
c p weight 93 1.0 0
c p weight -93 1.0 0
c p weight 94 0.2500000000000001 0
c p weight -94 0.7499999999999999 0
c p weight 95 1.0 0
c p weight -95 1.0 0
c p weight 96 0.3333333333333335 0
c p weight -96 0.6666666666666665 0
c p weight 97 1.0 0
c p weight -97 1.0 0
c p weight 98 0.5000000000000003 0
c p weight -98 0.49999999999999967 0
c p weight 99 1.0 0
c p weight -99 0.0 0
c p weight 100 1.0 0
c p weight -100 1.0 0
c p weight 101 0.5 0
c p weight -101 0.5 0
c p weight 102 0.1 0
c p weight -102 0.9 0
c p weight 103 1.0 0
c p weight -103 1.0 0
c p weight 104 0.11111111111111112 0
c p weight -104 0.8888888888888888 0
c p weight 105 1.0 0
c p weight -105 1.0 0
c p weight 106 0.125 0
c p weight -106 0.875 0
c p weight 107 1.0 0
c p weight -107 1.0 0
c p weight 108 0.14285714285714285 0
c p weight -108 0.8571428571428572 0
c p weight 109 1.0 0
c p weight -109 1.0 0
c p weight 110 0.16666666666666666 0
c p weight -110 0.8333333333333334 0
c p weight 111 1.0 0
c p weight -111 1.0 0
c p weight 112 0.19999999999999996 0
c p weight -112 0.8 0
c p weight 113 1.0 0
c p weight -113 1.0 0
c p weight 114 0.24999999999999994 0
c p weight -114 0.75 0
c p weight 115 1.0 0
c p weight -115 1.0 0
c p weight 116 0.3333333333333332 0
c p weight -116 0.6666666666666667 0
c p weight 117 1.0 0
c p weight -117 1.0 0
c p weight 118 0.49999999999999967 0
c p weight -118 0.5000000000000003 0
c p weight 119 0.9999999999999987 0
c p weight -119 1.3322676295501878e-15 0
c p weight 120 1.0 0
c p weight -120 1.0 0
c p weight 121 1.0 0
c p weight -121 1.0 0
c p weight 122 1.0 0
c p weight -122 1.0 0
c p weight 123 1.0 0
c p weight -123 1.0 0
c p weight 124 1.0 0
c p weight -124 1.0 0
c p weight 125 1.0 0
c p weight -125 1.0 0
c p weight 126 1.0 0
c p weight -126 1.0 0
c p weight 127 1.0 0
c p weight -127 1.0 0
c p weight 128 1.0 0
c p weight -128 1.0 0
c p weight 129 1.0 0
c p weight -129 1.0 0
c p weight 130 1.0 0
c p weight -130 1.0 0
c p weight 131 1.0 0
c p weight -131 1.0 0
c p weight 132 1.0 0
c p weight -132 1.0 0
c p weight 133 1.0 0
c p weight -133 1.0 0
c p weight 134 1.0 0
c p weight -134 1.0 0
c p weight 135 1.0 0
c p weight -135 1.0 0
c p weight 136 1.0 0
c p weight -136 1.0 0
c p weight 137 1.0 0
c p weight -137 1.0 0
c p weight 138 1.0 0
c p weight -138 1.0 0
c p weight 139 1.0 0
c p weight -139 1.0 0
c p weight 140 1.0 0
c p weight -140 1.0 0
c p weight 141 1.0 0
c p weight -141 1.0 0
c p weight 142 1.0 0
c p weight -142 1.0 0
c p weight 143 1.0 0
c p weight -143 1.0 0
c p weight 144 1.0 0
c p weight -144 1.0 0
c p weight 145 1.0 0
c p weight -145 1.0 0
c p weight 146 1.0 0
c p weight -146 1.0 0
c p weight 147 1.0 0
c p weight -147 1.0 0
c p weight 148 1.0 0
c p weight -148 1.0 0
c p weight 149 1.0 0
c p weight -149 1.0 0
c p weight 150 1.0 0
c p weight -150 1.0 0
c p weight 151 1.0 0
c p weight -151 1.0 0
c p weight 152 1.0 0
c p weight -152 1.0 0
c p weight 153 1.0 0
c p weight -153 1.0 0
c p weight 154 1.0 0
c p weight -154 1.0 0
c p weight 155 1.0 0
c p weight -155 1.0 0
c p weight 156 1.0 0
c p weight -156 1.0 0
c p weight 157 1.0 0
c p weight -157 1.0 0
c p weight 158 1.0 0
c p weight -158 1.0 0
c p weight 159 1.0 0
c p weight -159 1.0 0
c p weight 160 1.0 0
c p weight -160 1.0 0
c p weight 161 1.0 0
c p weight -161 1.0 0
c p weight 162 1.0 0
c p weight -162 1.0 0
c p weight 163 1.0 0
c p weight -163 1.0 0
c p weight 164 1.0 0
c p weight -164 1.0 0
c p weight 165 1.0 0
c p weight -165 1.0 0
c p weight 166 1.0 0
c p weight -166 1.0 0
c p weight 167 1.0 0
c p weight -167 1.0 0
c p weight 168 1.0 0
c p weight -168 1.0 0
c p weight 169 1.0 0
c p weight -169 1.0 0
c p weight 170 1.0 0
c p weight -170 1.0 0
c p weight 171 1.0 0
c p weight -171 1.0 0
c p weight 172 1.0 0
c p weight -172 1.0 0
c p weight 173 1.0 0
c p weight -173 1.0 0
c p weight 174 1.0 0
c p weight -174 1.0 0
c p weight 175 1.0 0
c p weight -175 1.0 0
c p weight 176 1.0 0
c p weight -176 1.0 0
c p weight 177 1.0 0
c p weight -177 1.0 0
c p weight 178 1.0 0
c p weight -178 1.0 0
c p weight 179 1.0 0
c p weight -179 1.0 0
c p weight 180 1.0 0
c p weight -180 1.0 0
c p weight 181 1.0 0
c p weight -181 1.0 0
c p weight 182 1.0 0
c p weight -182 1.0 0
c p weight 183 1.0 0
c p weight -183 1.0 0
c p weight 184 1.0 0
c p weight -184 1.0 0
c p weight 185 1.0 0
c p weight -185 1.0 0
c p weight 186 1.0 0
c p weight -186 1.0 0
c p weight 187 1.0 0
c p weight -187 1.0 0
c p weight 188 1.0 0
c p weight -188 1.0 0
c p weight 189 1.0 0
c p weight -189 1.0 0
c p weight 190 1.0 0
c p weight -190 1.0 0
c p weight 191 1.0 0
c p weight -191 1.0 0
c p weight 192 1.0 0
c p weight -192 1.0 0
c p weight 193 1.0 0
c p weight -193 1.0 0
c p weight 194 1.0 0
c p weight -194 1.0 0
c p weight 195 1.0 0
c p weight -195 1.0 0
c p weight 196 1.0 0
c p weight -196 1.0 0
c p weight 197 1.0 0
c p weight -197 1.0 0
c p weight 198 1.0 0
c p weight -198 1.0 0
c p weight 199 1.0 0
c p weight -199 1.0 0
c p weight 200 1.0 0
c p weight -200 1.0 0
c p weight 201 1.0 0
c p weight -201 1.0 0
c p weight 202 1.0 0
c p weight -202 1.0 0
c p weight 203 1.0 0
c p weight -203 1.0 0
c p weight 204 1.0 0
c p weight -204 1.0 0
c p weight 205 1.0 0
c p weight -205 1.0 0
c p weight 206 1.0 0
c p weight -206 1.0 0
c p weight 207 1.0 0
c p weight -207 1.0 0
c p weight 208 1.0 0
c p weight -208 1.0 0
c p weight 209 1.0 0
c p weight -209 1.0 0
c p weight 210 1.0 0
c p weight -210 1.0 0
c p weight 211 1.0 0
c p weight -211 1.0 0
c p weight 212 1.0 0
c p weight -212 1.0 0
c p weight 213 1.0 0
c p weight -213 1.0 0
c p weight 214 1.0 0
c p weight -214 1.0 0
c p weight 215 1.0 0
c p weight -215 1.0 0
c p weight 216 1.0 0
c p weight -216 1.0 0
c p weight 217 1.0 0
c p weight -217 1.0 0
c p weight 218 1.0 0
c p weight -218 1.0 0
c p weight 219 1.0 0
c p weight -219 1.0 0
c p weight 220 1.0 0
c p weight -220 1.0 0
c p weight 221 1.0 0
c p weight -221 1.0 0
c p weight 222 1.0 0
c p weight -222 1.0 0
c p weight 223 1.0 0
c p weight -223 1.0 0
c p weight 224 1.0 0
c p weight -224 1.0 0
c p weight 225 1.0 0
c p weight -225 1.0 0
c p weight 226 1.0 0
c p weight -226 1.0 0
c p weight 227 1.0 0
c p weight -227 1.0 0
c p weight 228 1.0 0
c p weight -228 1.0 0
c p weight 229 1.0 0
c p weight -229 1.0 0
c p weight 230 1.0 0
c p weight -230 1.0 0
c p weight 231 1.0 0
c p weight -231 1.0 0
c p weight 232 1.0 0
c p weight -232 1.0 0
c p weight 233 1.0 0
c p weight -233 1.0 0
c p weight 234 1.0 0
c p weight -234 1.0 0
c p weight 235 1.0 0
c p weight -235 1.0 0
c p weight 236 1.0 0
c p weight -236 1.0 0
c p weight 237 1.0 0
c p weight -237 1.0 0
c p weight 238 1.0 0
c p weight -238 1.0 0
c p weight 239 1.0 0
c p weight -239 1.0 0
c p weight 240 1.0 0
c p weight -240 1.0 0
c p weight 241 1.0 0
c p weight -241 1.0 0
c p weight 242 1.0 0
c p weight -242 1.0 0
c p weight 243 1.0 0
c p weight -243 1.0 0
c p weight 244 1.0 0
c p weight -244 1.0 0
c p weight 245 1.0 0
c p weight -245 1.0 0
c p weight 246 1.0 0
c p weight -246 1.0 0
c p weight 247 1.0 0
c p weight -247 1.0 0
c p weight 248 1.0 0
c p weight -248 1.0 0
c p weight 249 1.0 0
c p weight -249 1.0 0
c p weight 250 1.0 0
c p weight -250 1.0 0
c p weight 251 1.0 0
c p weight -251 1.0 0
c p weight 252 1.0 0
c p weight -252 1.0 0
c p weight 253 1.0 0
c p weight -253 1.0 0
c p weight 254 1.0 0
c p weight -254 1.0 0
c p weight 255 1.0 0
c p weight -255 1.0 0
c p weight 256 1.0 0
c p weight -256 1.0 0
c p weight 257 1.0 0
c p weight -257 1.0 0
c p weight 258 1.0 0
c p weight -258 1.0 0
c p weight 259 1.0 0
c p weight -259 1.0 0
c p weight 260 1.0 0
c p weight -260 1.0 0
c p weight 261 1.0 0
c p weight -261 1.0 0
c p weight 262 1.0 0
c p weight -262 1.0 0
c p weight 263 1.0 0
c p weight -263 1.0 0
c p weight 264 1.0 0
c p weight -264 1.0 0
c p weight 265 1.0 0
c p weight -265 1.0 0
c p weight 266 1.0 0
c p weight -266 1.0 0
c p weight 267 1.0 0
c p weight -267 1.0 0
c p weight 268 1.0 0
c p weight -268 1.0 0
c p weight 269 1.0 0
c p weight -269 1.0 0
c p weight 270 1.0 0
c p weight -270 1.0 0
c p weight 271 1.0 0
c p weight -271 1.0 0
c p weight 272 1.0 0
c p weight -272 1.0 0
c p weight 273 1.0 0
c p weight -273 1.0 0
c p weight 274 1.0 0
c p weight -274 1.0 0
c p semirings aspmc.semirings.probabilistic 0
c p quantify 1 2 3 4 5 6 7 8 9 10 11 12 13 14 15 16 17 18 19 20 21 22 23 24 25 26 27 28 29 30 31 32 33 34 35 36 37 38 39 40 41 42 43 44 45 46 47 48 49 50 51 52 53 54 55 56 57 58 59 60 61 62 63 64 65 66 67 68 69 70 71 72 73 74 75 76 77 78 79 80 81 82 83 84 85 86 87 88 89 90 91 92 93 94 95 96 97 98 99 100 101 102 103 104 105 106 107 108 109 110 111 112 113 114 115 116 117 118 119 120 121 122 123 124 125 126 127 128 129 130 131 132 133 134 135 136 137 138 139 140 141 142 143 144 145 146 147 148 149 150 151 152 153 154 155 156 157 158 159 160 161 162 163 164 165 166 167 168 169 170 171 172 173 174 175 176 177 178 179 180 181 182 183 184 185 186 187 188 189 190 191 192 193 194 195 196 197 198 199 200 201 202 203 204 205 206 207 208 209 210 211 212 213 214 215 216 217 218 219 220 221 222 223 224 225 226 227 228 229 230 231 232 233 234 235 236 237 238 239 240 241 242 243 244 245 246 247 248 249 250 251 252 253 254 255 256 257 258 259 260 261 262 263 264 265 266 267 268 269 270 271 272 273 274 0
c p auxilliary 2 6 9 11 13 15 18 20 22 24 27 29 31 33 36 38 40 42 44 46 49 51 53 55 57 59 61 64 66 68 70 72 74 76 78 81 83 85 87 89 91 93 95 97 100 103 105 107 109 111 113 115 117 120 121 122 123 124 125 126 127 128 129 130 131 132 133 134 135 136 137 138 139 140 141 142 143 144 145 146 147 148 149 150 151 152 153 154 155 156 157 158 159 160 161 162 163 164 165 166 167 168 169 170 171 172 173 174 175 176 177 178 179 180 181 182 183 184 185 186 187 188 189 190 191 192 193 194 195 196 197 198 199 200 201 202 203 204 205 206 207 208 209 210 211 212 213 214 215 216 217 218 219 220 221 222 223 224 225 226 227 228 229 230 231 232 233 234 235 236 237 238 239 240 241 242 243 244 245 246 247 248 249 250 251 252 253 254 255 256 257 258 259 260 261 262 263 264 265 266 267 268 269 270 271 272 273 274 0
